HUN,8,6,273
2,9,4,14,1,33,3,50,5,17,0,29
1,12,4,74,0,56,2,94,5,38,3,14
2,99,5,14,3,38,1,37,4,53,0,96
2,37,5,43,1,36,3,17,4,30,0,60
3,27,5,49,1,28,2,53,0,39,4,87
3,30,4,68,2,33,5,86,1,75,0,69
0,52,4,18,2,30,5,94,3,83,1,47
4,75,2,86,1,11,3,44,5,41,0,6
